r = [
0,174,224,321,352,75,70,349,325,9,318,14,383,169,7,109,223,203,186,73,337,334,76,310,189,129,0
];
p = [
0,15,12,17,7,16,21,20,21,7,27,22,25,29,11,14,23,21,13,10,15,6,18,3,23,30,0
];
e = [
0,12,10,13,9,1,9,10,16,14,6,4,12,4,9,15,2,8,14,17,20,2,18,18,18,19,0
];
d = [
0,236,271,368,393,118,119,403,355,31,359,61,408,222,49,159,256,236,237,109,368,360,110,350,214,159,411
];
d_bar = [
0,238,272,370,394,120,121,405,357,32,362,63,411,225,50,160,258,238,238,110,370,361,112,351,216,162,411
];
w = [
0,6,10,6.5,9,0.5,4.5,5,8,14,2,2,4,1.333333333,9,15,1,4,14,17,10,2,9,18,9,6.333333333,0
];
